(set-logic BV) (define-fun origCir ((n386 Bool) (n389 Bool) (n393 Bool) (n388 Bool) (i_2 Bool)) Bool (and (and (and n393 (not n388)) (xor n389 n386)) i_2)) (synth-fun skel ((n386 Bool) (n389 Bool) (n393 Bool) (n388 Bool) (i_2 Bool)) Bool) (declare-var n386 Bool) (declare-var n389 Bool) (declare-var n393 Bool) (declare-var n388 Bool) (declare-var i_2 Bool) (constraint (= (origCir n386 n389 n393 n388 i_2) (skel n386 n389 n393 n388 i_2))) (check-synth)
